36
50
40	25
39	28
38	26
37	26
36	33
35	32
34	21
33	31
32	25
31	23
30	34
29	32
28	27
27	22
26	28
25	31
24	26
23	35
22	30
21	33
20	26
19	29
18	23
17	25
16	29
15	18
14	32
13	18
12	36
11	30
10	26
9	24
8	25
7	27
6	31
5	33
